DIMENSION: 13
NODE_COORD_SECTION
1 277.5510204082 -244.3249701314
2 -1648.6486486486 -252.8281750267
3 -1200.0000000000 521.2814645309
4 67.5392670157 55.6029882604
5 264.1350210970 94.9297495418
6 -574.2543171115 -63.9344262295
7 -239.4265232975 -118.0327868852
8 157.0800351803 13.2385938669
9 -374.3490838959 229.2875989446
10 -1025.0950570342 50.6937033084
11 -5.4852320675 336.4116094987
12 -97.0149253731 326.8445839874
13 1150.9505703422 -638.5474860335
EOF